NAME : B-n50-k8.1313.tour
COMMENT : Cost = 0_1313
COMMENT : Found by LKH [Keld Helsgaun] Wed Sep 13 11:37:28 2017
TYPE : TOUR
DIMENSION : 57
TOUR_SECTION
1
2
29
30
20
33
52
23
24
42
46
40
36
53
6
17
31
54
35
49
41
8
45
51
32
15
47
39
14
4
55
26
5
19
27
48
25
12
21
57
11
22
43
18
9
16
56
3
38
10
34
50
44
37
13
28
7
-1
EOF
